NAME        limbo
ROWS
 N  Obj
 L  HiGHS_R0
 G  HiGHS_R1
COLUMNS
    MARK0000  'MARKER'                 'INTORG'
    b_5829890_x2  Obj       1
    b_5829890_x2  HiGHS_R0  -2
    b_5880854_x2  Obj       1
    b_5880854_x2  HiGHS_R1  1
    b_5829890_x1  HiGHS_R0  2
    MARK0001  'MARKER'                 'INTEND'
    b_5880854_x1  HiGHS_R1  -1
RHS
    RHS_V     HiGHS_R0  -64
    RHS_V     HiGHS_R1  32
BOUNDS
 LI BOUND     b_5829890_x2  1014
 UI BOUND     b_5829890_x2  1917
 LI BOUND     b_5880854_x2  1014
 UI BOUND     b_5880854_x2  1917
 LI BOUND     b_5829890_x1  10
 UI BOUND     b_5829890_x1  1
 UP BOUND     b_5880854_x1  10
ENDATA
